8 
6 
9 
8 
13 
11 
11 
13 
7 
9 
6 
5 
10 
12 
7 
5 
16 
7 
15 
3 
8 
11 
12 
7 
7 
6 
9 
10 
8 
6 
10 
4 
13 
7 
4 
9 
15 
7 
7 
10 
5 
6 
3 
5 
7 
6 
8 
7 
12 
10 
8 
8 
6 
9 
13 
6 
8 
4 
6 
9 
9 
5 
6 
10 
6 
4 
5 
6 
11 
8 
9 
11 
6 
11 
6 
7 
10 
11 
10 
6 
8 
12 
10 
8 
8 
7 
13 
11 
4 
6 
6 
10 
8 
5 
2 
10 
9 
6 
7 
5 
